12 16 6 10
4 2 15 17 13 16 4 10 9 3 20 8 12 3 2 16 
4.87 12.84 8.52 9.71 15.6 3.07 6.29 11.63 2.45 8.33 2.37 11.95 6.57 15.74 1.82 3.84 
11.41 1.81 15.12 9.24 5.34 3.57 7.06 5.46 6.63 15.95 9.32 0.22 11.55 8.3 3.39 0.75 
1.52 7.7 10.38 5.18 14.14 14.88 0.37 3.88 13.75 12.45 11.71 6.36 11.07 10.54 7.18 15.74 
10.68 12.49 9.05 9.1 1.75 13.53 14.69 3.76 15.6 12.29 6.95 7.05 13.57 15 11.06 9.73 
12.84 13.93 13.52 13.74 15.81 6.04 3.91 3.56 9.11 6.61 6.85 11.9 8.96 15.81 15.37 9.61 
7.03 7.44 8.51 10.4 2.93 2.17 15.53 8.96 15.46 0.16 9.93 6.97 11.12 1.59 14.34 15.42 
8 8 8 8 8 8 8 8 8 8 8 8 8 8 8 8 
8.6 0.19 1.06 7.2 15.1 11.46 1.83 13.85 1.79 12.52 5.92 4.64 4.55 12.96 15.23 13.94 
9.06 8.82 4.78 3.67 0.18 1.69 5 6.64 5.58 6.75 4.96 7.95 12.35 1.96 3.81 0.68 
3.19 12.5 12.99 14.69 8.93 15.3 15.38 0.27 12.11 9.45 4.19 12.85 12.35 12.55 3.54 11.98 
7.89 12.75 3.54 11.25 5.94 13.81 13.41 13.47 13.97 12.31 12.96 8.83 7.1 2.5 8.98 8.09 
2.77 3.93 13.67 13.34 2.15 14.24 7.39 2.71 8.98 8.61 12.36 1.7 7.7 11.37 0.68 5.74 
1 1 1 1 1 1 1 1 1 1 1 1 1 1 1 1 
1 1 1 1 1 1 1 1 1 1 1 1 1 1 1 1 
1 1 1 1 1 1 1 1 1 1 1 1 1 1 1 1 
1 1 1 1 1 1 1 1 1 1 1 1 1 1 1 1 
1 1 1 1 1 1 1 1 1 1 1 1 1 1 1 1 
1 1 1 1 1 1 1 1 1 1 1 1 1 1 1 1 
1 1 1 1 1 1 1 1 1 1 1 1 1 1 1 1 
1 1 1 1 1 1 1 1 1 1 1 1 1 1 1 1 
1 1 1 1 1 1 1 1 1 1 1 1 1 1 1 1 
1 1 1 1 1 1 1 1 1 1 1 1 1 1 1 1 
1 1 1 1 1 1 1 1 1 1 1 1 1 1 1 1 
1 1 1 1 1 1 1 1 1 1 1 1 1 1 1 1 
0.01 0.01 0.01 0.01 0.01 0.01 0.01 0.01 0.01 0.01 0.01 0.01 0.01 0.01 0.01 0.01 
0.02 0.02 0.02 0.02 0.02 0.02 0.02 0.02 0.02 0.02 0.02 0.02 0.02 0.02 0.02 0.02 
0.03 0.03 0.03 0.03 0.03 0.03 0.03 0.03 0.03 0.03 0.03 0.03 0.03 0.03 0.03 0.03 
0.04 0.04 0.04 0.04 0.04 0.04 0.04 0.04 0.04 0.04 0.04 0.04 0.04 0.04 0.04 0.04 
0.05 0.05 0.05 0.05 0.05 0.05 0.05 0.05 0.05 0.05 0.05 0.05 0.05 0.05 0.05 0.05 
0.06 0.06 0.06 0.06 0.06 0.06 0.06 0.06 0.06 0.06 0.06 0.06 0.06 0.06 0.06 0.06 
0.07 0.07 0.07 0.07 0.07 0.07 0.07 0.07 0.07 0.07 0.07 0.07 0.07 0.07 0.07 0.07 
0.2 0.2 0.2 0.2 0.2 0.2 0.2 0.2 0.2 0.2 0.2 0.2 0.2 0.2 0.2 0.2 
0.4 0.4 0.4 0.4 0.4 0.4 0.4 0.4 0.4 0.4 0.4 0.4 0.4 0.4 0.4 0.4 
0.6 0.6 0.6 0.6 0.6 0.6 0.6 0.6 0.6 0.6 0.6 0.6 0.6 0.6 0.6 0.6 
0.8 0.8 0.8 0.8 0.8 0.8 0.8 0.8 0.8 0.8 0.8 0.8 0.8 0.8 0.8 0.8 
1 1 1 1 1 1 1 1 1 1 1 1 1 1 1 1 
